(set-info :original "../sandbox/testgen/testgen.bc")
(set-info :authors "SeaHorn v.10.0.0-rc0")
(declare-rel verifier.error (Bool Bool Bool ))
(declare-rel main@_loop.bound ())
(declare-rel main@empty.loop (Int ))
(declare-rel main@_.03 (Int Int Int Int ))
(declare-rel main@_ret ())
(declare-var main@%_br2_0 Bool )
(declare-var main@%_11_0 Bool )
(declare-var main@%_spec.select_0 Int )
(declare-var main@%.25_2 Int )
(declare-var main@%.2_2 Int )
(declare-var main@%_4_0 Bool )
(declare-var main@%_.14_0 Int )
(declare-var main@%not._0 Bool )
(declare-var main@%_.12_0 Int )
(declare-var main@%_br_0 Bool )
(declare-var main@%nd.loop.cond_0 Bool )
(declare-var main@%.03_2 Int )
(declare-var main@%.01_2 Int )
(declare-var main@%_call_0 Bool )
(declare-var main@_loop.bound_0 Bool )
(declare-var main@%loop.bound_0 Int )
(declare-var main@empty.loop_0 Bool )
(declare-var main@empty.loop.body_0 Bool )
(declare-var main@empty.loop_1 Bool )
(declare-var main@_.03_0 Bool )
(declare-var main@%.03_0 Int )
(declare-var main@%.01_0 Int )
(declare-var main@%.0_0 Int )
(declare-var main@%.03_1 Int )
(declare-var main@%.01_1 Int )
(declare-var main@%.0_1 Int )
(declare-var main@%.14_0 Int )
(declare-var main@%.12_0 Int )
(declare-var main@_10_0 Bool )
(declare-var main@%spec.select_0 Int )
(declare-var main@%spec.select6_0 Int )
(declare-var main@_8_0 Bool )
(declare-var main@%_br1_0 Int )
(declare-var main@_.25_0 Bool )
(declare-var main@%.25_0 Int )
(declare-var main@%.2_0 Int )
(declare-var main@%.1_0 Int )
(declare-var main@%.25_1 Int )
(declare-var main@%.2_1 Int )
(declare-var main@%.1_1 Int )
(declare-var main@%.1_2 Int )
(declare-var main@_.03_1 Bool )
(declare-var main@%.0_2 Int )
(declare-var main@_ret_0 Bool )
(rule (verifier.error false false false))
(rule (verifier.error false true true))
(rule (verifier.error true false true))
(rule (verifier.error true true true))
(rule main@_loop.bound)
(rule (=> (and main@_loop.bound
         true
         (= main@%_call_0 (= main@%loop.bound_0 0))
         main@%_call_0
         (=> main@empty.loop_0 (and main@empty.loop_0 main@_loop.bound_0))
         main@empty.loop_0)
    (main@empty.loop main@%loop.bound_0)))
(rule (=> (and (main@empty.loop main@%loop.bound_0)
         true
         (=> main@empty.loop.body_0
             (and main@empty.loop.body_0 main@empty.loop_0))
         (=> (and main@empty.loop.body_0 main@empty.loop_0)
             main@%nd.loop.cond_0)
         (=> main@empty.loop_1 (and main@empty.loop_1 main@empty.loop.body_0))
         main@empty.loop_1)
    (main@empty.loop main@%loop.bound_0)))
(rule (=> (and (main@empty.loop main@%loop.bound_0)
         true
         (=> main@_.03_0 (and main@_.03_0 main@empty.loop_0))
         (=> (and main@_.03_0 main@empty.loop_0) (not main@%nd.loop.cond_0))
         (=> (and main@_.03_0 main@empty.loop_0) (= main@%.03_0 10999))
         (=> (and main@_.03_0 main@empty.loop_0) (= main@%.01_0 54265))
         (=> (and main@_.03_0 main@empty.loop_0) (= main@%.0_0 98144))
         (=> (and main@_.03_0 main@empty.loop_0) (= main@%.03_1 main@%.03_0))
         (=> (and main@_.03_0 main@empty.loop_0) (= main@%.01_1 main@%.01_0))
         (=> (and main@_.03_0 main@empty.loop_0) (= main@%.0_1 main@%.0_0))
         main@_.03_0)
    (main@_.03 main@%loop.bound_0 main@%.03_1 main@%.01_1 main@%.0_1)))
(rule (let ((a!1 (and (main@_.03 main@%loop.bound_0
                           main@%.03_0
                           main@%.01_0
                           main@%.0_0)
                true
                (= main@%_4_0 (> main@%.01_0 4))
                (= main@%_.14_0 (ite main@%_4_0 1 0))
                (= main@%.14_0 (+ main@%.03_0 main@%_.14_0))
                (= main@%not._0 (xor main@%_4_0 true))
                (= main@%_.12_0 (ite main@%not._0 1 0))
                (= main@%.12_0 (+ main@%.01_0 main@%_.12_0))
                (= main@%_br_0 (< main@%.14_0 6))
                (=> main@_10_0 (and main@_10_0 main@_.03_0))
                (=> (and main@_10_0 main@_.03_0) (not main@%_br_0))
                (=> main@_10_0 (= main@%_11_0 (> main@%.12_0 main@%.14_0)))
                (=> main@_10_0 (= main@%_spec.select_0 (ite main@%_11_0 1 0)))
                (=> main@_10_0
                    (= main@%spec.select_0 (+ main@%.14_0 main@%_spec.select_0)))
                (=> main@_10_0
                    (= main@%spec.select6_0 (ite main@%_11_0 main@%.12_0 0)))
                (=> main@_8_0 (and main@_8_0 main@_.03_0))
                (=> (and main@_8_0 main@_.03_0) main@%_br_0)
                (=> main@_8_0 (= main@%_br1_0 (+ main@%.0_0 1)))
                (=> main@_.25_0
                    (or (and main@_.25_0 main@_10_0)
                        (and main@_.25_0 main@_8_0)))
                (=> (and main@_.25_0 main@_10_0)
                    (= main@%.25_0 main@%spec.select_0))
                (=> (and main@_.25_0 main@_10_0)
                    (= main@%.2_0 main@%spec.select6_0))
                (=> (and main@_.25_0 main@_10_0) (= main@%.1_0 main@%.0_0))
                (=> (and main@_.25_0 main@_8_0) (= main@%.25_1 main@%.14_0))
                (=> (and main@_.25_0 main@_8_0) (= main@%.2_1 main@%.12_0))
                (=> (and main@_.25_0 main@_8_0) (= main@%.1_1 main@%_br1_0))
                (=> (and main@_.25_0 main@_10_0) (= main@%.25_2 main@%.25_0))
                (=> (and main@_.25_0 main@_10_0) (= main@%.2_2 main@%.2_0))
                (=> (and main@_.25_0 main@_10_0) (= main@%.1_2 main@%.1_0))
                (=> (and main@_.25_0 main@_8_0) (= main@%.25_2 main@%.25_1))
                (=> (and main@_.25_0 main@_8_0) (= main@%.2_2 main@%.2_1))
                (=> (and main@_.25_0 main@_8_0) (= main@%.1_2 main@%.1_1))
                (=> main@_.25_0
                    (= main@%_br2_0 (= main@%.1_2 main@%loop.bound_0)))
                (=> main@_.03_1 (and main@_.03_1 main@_.25_0))
                (=> (and main@_.03_1 main@_.25_0) (not main@%_br2_0))
                (=> (and main@_.03_1 main@_.25_0) (= main@%.03_1 main@%.25_2))
                (=> (and main@_.03_1 main@_.25_0) (= main@%.01_1 main@%.2_2))
                (=> (and main@_.03_1 main@_.25_0) (= main@%.0_1 main@%.1_2))
                (=> (and main@_.03_1 main@_.25_0) (= main@%.03_2 main@%.03_1))
                (=> (and main@_.03_1 main@_.25_0) (= main@%.01_2 main@%.01_1))
                (=> (and main@_.03_1 main@_.25_0) (= main@%.0_2 main@%.0_1))
                main@_.03_1)))
  (=> a!1 (main@_.03 main@%loop.bound_0 main@%.03_2 main@%.01_2 main@%.0_2))))
(rule (let ((a!1 (and (main@_.03 main@%loop.bound_0
                           main@%.03_0
                           main@%.01_0
                           main@%.0_0)
                true
                (= main@%_4_0 (> main@%.01_0 4))
                (= main@%_.14_0 (ite main@%_4_0 1 0))
                (= main@%.14_0 (+ main@%.03_0 main@%_.14_0))
                (= main@%not._0 (xor main@%_4_0 true))
                (= main@%_.12_0 (ite main@%not._0 1 0))
                (= main@%.12_0 (+ main@%.01_0 main@%_.12_0))
                (= main@%_br_0 (< main@%.14_0 6))
                (=> main@_10_0 (and main@_10_0 main@_.03_0))
                (=> (and main@_10_0 main@_.03_0) (not main@%_br_0))
                (=> main@_10_0 (= main@%_11_0 (> main@%.12_0 main@%.14_0)))
                (=> main@_10_0 (= main@%_spec.select_0 (ite main@%_11_0 1 0)))
                (=> main@_10_0
                    (= main@%spec.select_0 (+ main@%.14_0 main@%_spec.select_0)))
                (=> main@_10_0
                    (= main@%spec.select6_0 (ite main@%_11_0 main@%.12_0 0)))
                (=> main@_8_0 (and main@_8_0 main@_.03_0))
                (=> (and main@_8_0 main@_.03_0) main@%_br_0)
                (=> main@_8_0 (= main@%_br1_0 (+ main@%.0_0 1)))
                (=> main@_.25_0
                    (or (and main@_.25_0 main@_10_0)
                        (and main@_.25_0 main@_8_0)))
                (=> (and main@_.25_0 main@_10_0)
                    (= main@%.25_0 main@%spec.select_0))
                (=> (and main@_.25_0 main@_10_0)
                    (= main@%.2_0 main@%spec.select6_0))
                (=> (and main@_.25_0 main@_10_0) (= main@%.1_0 main@%.0_0))
                (=> (and main@_.25_0 main@_8_0) (= main@%.25_1 main@%.14_0))
                (=> (and main@_.25_0 main@_8_0) (= main@%.2_1 main@%.12_0))
                (=> (and main@_.25_0 main@_8_0) (= main@%.1_1 main@%_br1_0))
                (=> (and main@_.25_0 main@_10_0) (= main@%.25_2 main@%.25_0))
                (=> (and main@_.25_0 main@_10_0) (= main@%.2_2 main@%.2_0))
                (=> (and main@_.25_0 main@_10_0) (= main@%.1_2 main@%.1_0))
                (=> (and main@_.25_0 main@_8_0) (= main@%.25_2 main@%.25_1))
                (=> (and main@_.25_0 main@_8_0) (= main@%.2_2 main@%.2_1))
                (=> (and main@_.25_0 main@_8_0) (= main@%.1_2 main@%.1_1))
                (=> main@_.25_0
                    (= main@%_br2_0 (= main@%.1_2 main@%loop.bound_0)))
                (=> main@_ret_0 (and main@_ret_0 main@_.25_0))
                (=> (and main@_ret_0 main@_.25_0) main@%_br2_0)
                main@_ret_0)))
  (=> a!1 main@_ret)))
(query main@_ret)

